s = array1d(1..225, [0, 0, 0, 0, 9, 2, 0, 0, 0, 0, 1, 4, 13, 3, 0, 0, 7, 5, 2, 6, 0, 0, 9, 0, 10, 12, 0, 0, 0, 0, 5, 0, 8, 12, 0, 10, 11, 3, 0, 0, 0, 0, 0, 0, 0, 7, 13, 0, 0, 4, 0, 6, 0, 3, 0, 11, 10, 0, 0, 0, 8, 0, 0, 0, 0, 0, 4, 0, 0, 5, 0, 9, 0, 1, 12, 0, 1, 4, 14, 10, 0, 12, 0, 0, 0, 0, 6, 5, 0, 0, 6, 0, 2, 0, 0, 0, 13, 8, 5, 0, 0, 0, 0, 4, 3, 0, 14, 3, 0, 0, 12, 0, 6, 0, 0, 0, 0, 0, 13, 9, 9, 0, 0, 0, 0, 0, 0, 0, 7, 0, 10, 1, 3, 12, 0, 0, 0, 0, 10, 0, 3, 1, 0, 0, 13, 0, 0, 7, 8, 6, 0, 0, 10, 13, 0, 5, 0, 14, 2, 0, 3, 0, 0, 0, 7, 0, 0, 0, 1, 0, 7, 3, 0, 9, 4, 13, 0, 11, 0, 0, 1, 0, 0, 0, 13, 0, 0, 7, 6, 14, 0, 3, 4, 0, 0, 3, 2, 0, 8, 0, 0, 0, 0, 0, 9, 6, 7, 0, 11, 0, 0, 5, 6, 0, 8, 9, 0, 10, 0, 0, 0, 0, 0, 0, 14]);
n = 15;
